p cnf 60 0
1 -61 0
-1 61 0
2 -62 0
-2 62 0
c rules for 3:
-3 -8 -33 -34 0
34 3 0
34 8 0
34 33 0
33 3 0
33 8 0
8 3 0
3 -63 0
-3 63 0
c rules for 2:
-4 -9 -34 0
-4 -9 -35 0
35 34 9 0
35 34 4 0
-4 -34 -35 0
35 9 4 0
34 9 4 0
-9 -34 -35 0
4 35 34 0
4 -64 0
-4 64 0
5 -65 0
-5 65 0
c rules for 2:
-6 -11 -37 0
-6 -11 -38 0
38 37 11 0
38 37 6 0
-6 -37 -38 0
38 11 6 0
37 11 6 0
-11 -37 -38 0
6 38 37 0
37 -66 0
-37 66 0
c rules for 2:
-7 -12 -38 0
-7 -12 -39 0
39 38 12 0
39 38 7 0
-7 -38 -39 0
39 12 7 0
38 12 7 0
-12 -38 -39 0
7 39 38 0
-67 -7 -39 -12 -38 0
-67 -7 -39 -12 62 0
-67 -7 -39 66 -38 0
-67 -7 -39 66 62 0
-67 -7 72 -12 -38 0
-67 -7 72 -12 62 0
-67 -7 72 -66 -38 0
-67 -7 72 -66 62 0
-67 7 -39 -12 -38 0
-67 7 -39 -12 62 0
-67 7 -39 66 -38 0
-67 7 -39 66 62 0
-67 7 72 -12 -38 0
-67 7 72 -12 62 0
-67 7 72 66 -38 0
-67 7 72 66 62 0
 67 7 -7 0
 67 39 -72 0
 67 12 -66 0
 67 38 -62 0
c rules for 2:
-8 -13 -39 0
-8 -13 -40 0
40 39 13 0
40 39 8 0
-8 -39 -40 0
40 13 8 0
39 13 8 0
-13 -39 -40 0
8 40 39 0
-68 -8 -40 -13 -39 0
-68 -8 -40 -13 63 0
-68 -8 -40 67 -39 0
-68 -8 -40 67 63 0
-68 -8 73 -13 -39 0
-68 -8 73 -13 63 0
-68 -8 73 -67 -39 0
-68 -8 73 -67 63 0
-68 8 -40 -13 -39 0
-68 8 -40 -13 63 0
-68 8 -40 67 -39 0
-68 8 -40 67 63 0
-68 8 73 -13 -39 0
-68 8 73 -13 63 0
-68 8 73 67 -39 0
-68 8 73 67 63 0
 68 8 -8 0
 68 40 -73 0
 68 13 -67 0
 68 39 -63 0
-69 -9 -41 -14 -40 0
-69 -9 -41 -14 64 0
-69 -9 -41 68 -40 0
-69 -9 -41 68 64 0
-69 -9 74 -14 -40 0
-69 -9 74 -14 64 0
-69 -9 74 -68 -40 0
-69 -9 74 -68 64 0
-69 9 -41 -14 -40 0
-69 9 -41 -14 64 0
-69 9 -41 68 -40 0
-69 9 -41 68 64 0
-69 9 74 -14 -40 0
-69 9 74 -14 64 0
-69 9 74 68 -40 0
-69 9 74 68 64 0
 69 9 -9 0
 69 41 -74 0
 69 14 -68 0
 69 40 -64 0
c rules for 3:
-10 -15 -41 -42 0
42 10 0
42 15 0
42 41 0
41 10 0
41 15 0
15 10 0
42 -70 0
-42 70 0
c rules for 0:
-11 0
-44 0
-16 0
-43 0
43 -71 0
-43 71 0
-72 -12 -45 -17 -44 0
-72 -12 -45 -17 67 0
-72 -12 -45 71 -44 0
-72 -12 -45 71 67 0
-72 -12 77 -17 -44 0
-72 -12 77 -17 67 0
-72 -12 77 -71 -44 0
-72 -12 77 -71 67 0
-72 12 -45 -17 -44 0
-72 12 -45 -17 67 0
-72 12 -45 71 -44 0
-72 12 -45 71 67 0
-72 12 77 -17 -44 0
-72 12 77 -17 67 0
-72 12 77 71 -44 0
-72 12 77 71 67 0
 72 12 -12 0
 72 45 -77 0
 72 17 -71 0
 72 44 -67 0
-73 -13 -46 -18 -45 0
-73 -13 -46 -18 68 0
-73 -13 -46 72 -45 0
-73 -13 -46 72 68 0
-73 -13 78 -18 -45 0
-73 -13 78 -18 68 0
-73 -13 78 -72 -45 0
-73 -13 78 -72 68 0
-73 13 -46 -18 -45 0
-73 13 -46 -18 68 0
-73 13 -46 72 -45 0
-73 13 -46 72 68 0
-73 13 78 -18 -45 0
-73 13 78 -18 68 0
-73 13 78 72 -45 0
-73 13 78 72 68 0
 73 13 -13 0
 73 46 -78 0
 73 18 -72 0
 73 45 -68 0
c rules for 1:
14 47 19 46 0
-14 -47 0
-14 -19 0
-14 -46 0
-47 -19 0
-47 -46 0
-19 -46 0
-74 -14 -47 -19 -46 0
-74 -14 -47 -19 69 0
-74 -14 -47 73 -46 0
-74 -14 -47 73 69 0
-74 -14 79 -19 -46 0
-74 -14 79 -19 69 0
-74 -14 79 -73 -46 0
-74 -14 79 -73 69 0
-74 14 -47 -19 -46 0
-74 14 -47 -19 69 0
-74 14 -47 73 -46 0
-74 14 -47 73 69 0
-74 14 79 -19 -46 0
-74 14 79 -19 69 0
-74 14 79 73 -46 0
-74 14 79 73 69 0
 74 14 -14 0
 74 47 -79 0
 74 19 -73 0
 74 46 -69 0
48 -75 0
-48 75 0
c rules for 2:
-16 -21 -49 0
-16 -21 -50 0
50 49 21 0
50 49 16 0
-16 -49 -50 0
50 21 16 0
49 21 16 0
-21 -49 -50 0
16 50 49 0
49 -76 0
-49 76 0
-77 -17 -51 -22 -50 0
-77 -17 -51 -22 72 0
-77 -17 -51 76 -50 0
-77 -17 -51 76 72 0
-77 -17 82 -22 -50 0
-77 -17 82 -22 72 0
-77 -17 82 -76 -50 0
-77 -17 82 -76 72 0
-77 17 -51 -22 -50 0
-77 17 -51 -22 72 0
-77 17 -51 76 -50 0
-77 17 -51 76 72 0
-77 17 82 -22 -50 0
-77 17 82 -22 72 0
-77 17 82 76 -50 0
-77 17 82 76 72 0
 77 17 -17 0
 77 51 -82 0
 77 22 -76 0
 77 50 -72 0
c rules for 2:
-18 -23 -51 0
-18 -23 -52 0
52 51 23 0
52 51 18 0
-18 -51 -52 0
52 23 18 0
51 23 18 0
-23 -51 -52 0
18 52 51 0
-78 -18 -52 -23 -51 0
-78 -18 -52 -23 73 0
-78 -18 -52 77 -51 0
-78 -18 -52 77 73 0
-78 -18 83 -23 -51 0
-78 -18 83 -23 73 0
-78 -18 83 -77 -51 0
-78 -18 83 -77 73 0
-78 18 -52 -23 -51 0
-78 18 -52 -23 73 0
-78 18 -52 77 -51 0
-78 18 -52 77 73 0
-78 18 83 -23 -51 0
-78 18 83 -23 73 0
-78 18 83 77 -51 0
-78 18 83 77 73 0
 78 18 -18 0
 78 52 -83 0
 78 23 -77 0
 78 51 -73 0
-79 -19 -53 -24 -52 0
-79 -19 -53 -24 74 0
-79 -19 -53 78 -52 0
-79 -19 -53 78 74 0
-79 -19 84 -24 -52 0
-79 -19 84 -24 74 0
-79 -19 84 -78 -52 0
-79 -19 84 -78 74 0
-79 19 -53 -24 -52 0
-79 19 -53 -24 74 0
-79 19 -53 78 -52 0
-79 19 -53 78 74 0
-79 19 84 -24 -52 0
-79 19 84 -24 74 0
-79 19 84 78 -52 0
-79 19 84 78 74 0
 79 19 -19 0
 79 53 -84 0
 79 24 -78 0
 79 52 -74 0
54 -80 0
-54 80 0
26 -81 0
-26 81 0
c rules for 2:
-22 -27 -56 0
-22 -27 -57 0
57 56 27 0
57 56 22 0
-22 -56 -57 0
57 27 22 0
56 27 22 0
-27 -56 -57 0
22 57 56 0
27 -82 0
-27 82 0
c rules for 3:
-23 -28 -57 -58 0
58 23 0
58 28 0
58 57 0
57 23 0
57 28 0
28 23 0
28 -83 0
-28 83 0
c rules for 2:
-24 -29 -58 0
-24 -29 -59 0
59 58 29 0
59 58 24 0
-24 -58 -59 0
59 29 24 0
58 29 24 0
-29 -58 -59 0
24 59 58 0
29 -84 0
-29 84 0
c rules for 3:
-25 -30 -59 -60 0
60 25 0
60 30 0
60 59 0
59 25 0
59 30 0
30 25 0
30 -85 0
-30 85 0
